	clingo --stats ../../../../../../../../../../../env/asprilo/asprilo-abstraction-encodings/instances/md/structured/x10_y12_r20/x10_y12_n120_r20_s20_ps1_pr20_u20_o20_l20_N003.lp ../../../../../../../../../../../env/asprilo/asprilo-abstraction-encodings/asprilo/misc/augment-m-to-md.lp ../../../../../../../../../../../env/asprilo/asprilo-abstraction-encodings/encodings/torsten/md/action-MD.lp ../../../../../../../../../../../env/asprilo/asprilo-abstraction-encodings/encodings/torsten/md/goal-MD.lp ../../../../../../../../../../../env/asprilo/asprilo-abstraction-encodings/encodings/torsten/md/output-M.lp -c horizon=25	
clingo version 5.4.0
Reading from ...0_r20_s20_ps1_pr20_u20_o20_l20_N003.lp ...
Solving...
Answer: 1
init(object(highway,1),value(at,(1,1))) init(object(highway,2),value(at,(1,2))) init(object(highway,3),value(at,(1,3))) init(object(highway,4),value(at,(1,4))) init(object(highway,5),value(at,(1,5))) init(object(highway,6),value(at,(1,6))) init(object(highway,7),value(at,(1,7))) init(object(highway,8),value(at,(1,8))) init(object(highway,9),value(at,(1,9))) init(object(highway,10),value(at,(1,10))) init(object(highway,13),value(at,(2,1))) init(object(highway,14),value(at,(2,2))) init(object(highway,17),value(at,(2,5))) init(object(highway,20),value(at,(2,8))) init(object(highway,25),value(at,(3,1))) init(object(highway,26),value(at,(3,2))) init(object(highway,29),value(at,(3,5))) init(object(highway,32),value(at,(3,8))) init(object(highway,37),value(at,(4,1))) init(object(highway,38),value(at,(4,2))) init(object(highway,39),value(at,(4,3))) init(object(highway,40),value(at,(4,4))) init(object(highway,41),value(at,(4,5))) init(object(highway,42),value(at,(4,6))) init(object(highway,43),value(at,(4,7))) init(object(highway,44),value(at,(4,8))) init(object(highway,45),value(at,(4,9))) init(object(highway,46),value(at,(4,10))) init(object(highway,50),value(at,(5,2))) init(object(highway,53),value(at,(5,5))) init(object(highway,56),value(at,(5,8))) init(object(highway,61),value(at,(6,1))) init(object(highway,62),value(at,(6,2))) init(object(highway,65),value(at,(6,5))) init(object(highway,68),value(at,(6,8))) init(object(highway,73),value(at,(7,1))) init(object(highway,74),value(at,(7,2))) init(object(highway,75),value(at,(7,3))) init(object(highway,76),value(at,(7,4))) init(object(highway,77),value(at,(7,5))) init(object(highway,78),value(at,(7,6))) init(object(highway,79),value(at,(7,7))) init(object(highway,80),value(at,(7,8))) init(object(highway,81),value(at,(7,9))) init(object(highway,82),value(at,(7,10))) init(object(highway,85),value(at,(8,1))) init(object(highway,86),value(at,(8,2))) init(object(highway,89),value(at,(8,5))) init(object(highway,92),value(at,(8,8))) init(object(highway,97),value(at,(9,1))) init(object(highway,98),value(at,(9,2))) init(object(highway,101),value(at,(9,5))) init(object(highway,104),value(at,(9,8))) init(object(highway,109),value(at,(10,1))) init(object(highway,110),value(at,(10,2))) init(object(highway,111),value(at,(10,3))) init(object(highway,112),value(at,(10,4))) init(object(highway,113),value(at,(10,5))) init(object(highway,114),value(at,(10,6))) init(object(highway,115),value(at,(10,7))) init(object(highway,116),value(at,(10,8))) init(object(highway,117),value(at,(10,9))) init(object(highway,118),value(at,(10,10))) init(object(node,1),value(at,(1,1))) init(object(node,2),value(at,(1,2))) init(object(node,3),value(at,(1,3))) init(object(node,4),value(at,(1,4))) init(object(node,5),value(at,(1,5))) init(object(node,6),value(at,(1,6))) init(object(node,7),value(at,(1,7))) init(object(node,8),value(at,(1,8))) init(object(node,9),value(at,(1,9))) init(object(node,10),value(at,(1,10))) init(object(node,11),value(at,(1,11))) init(object(node,12),value(at,(1,12))) init(object(node,13),value(at,(2,1))) init(object(node,14),value(at,(2,2))) init(object(node,15),value(at,(2,3))) init(object(node,16),value(at,(2,4))) init(object(node,17),value(at,(2,5))) init(object(node,18),value(at,(2,6))) init(object(node,19),value(at,(2,7))) init(object(node,20),value(at,(2,8))) init(object(node,21),value(at,(2,9))) init(object(node,22),value(at,(2,10))) init(object(node,23),value(at,(2,11))) init(object(node,24),value(at,(2,12))) init(object(node,25),value(at,(3,1))) init(object(node,26),value(at,(3,2))) init(object(node,27),value(at,(3,3))) init(object(node,28),value(at,(3,4))) init(object(node,29),value(at,(3,5))) init(object(node,30),value(at,(3,6))) init(object(node,31),value(at,(3,7))) init(object(node,32),value(at,(3,8))) init(object(node,33),value(at,(3,9))) init(object(node,34),value(at,(3,10))) init(object(node,35),value(at,(3,11))) init(object(node,36),value(at,(3,12))) init(object(node,37),value(at,(4,1))) init(object(node,38),value(at,(4,2))) init(object(node,39),value(at,(4,3))) init(object(node,40),value(at,(4,4))) init(object(node,41),value(at,(4,5))) init(object(node,42),value(at,(4,6))) init(object(node,43),value(at,(4,7))) init(object(node,44),value(at,(4,8))) init(object(node,45),value(at,(4,9))) init(object(node,46),value(at,(4,10))) init(object(node,47),value(at,(4,11))) init(object(node,48),value(at,(4,12))) init(object(node,49),value(at,(5,1))) init(object(node,50),value(at,(5,2))) init(object(node,51),value(at,(5,3))) init(object(node,52),value(at,(5,4))) init(object(node,53),value(at,(5,5))) init(object(node,54),value(at,(5,6))) init(object(node,55),value(at,(5,7))) init(object(node,56),value(at,(5,8))) init(object(node,57),value(at,(5,9))) init(object(node,58),value(at,(5,10))) init(object(node,59),value(at,(5,11))) init(object(node,60),value(at,(5,12))) init(object(node,61),value(at,(6,1))) init(object(node,62),value(at,(6,2))) init(object(node,63),value(at,(6,3))) init(object(node,64),value(at,(6,4))) init(object(node,65),value(at,(6,5))) init(object(node,66),value(at,(6,6))) init(object(node,67),value(at,(6,7))) init(object(node,68),value(at,(6,8))) init(object(node,69),value(at,(6,9))) init(object(node,70),value(at,(6,10))) init(object(node,71),value(at,(6,11))) init(object(node,72),value(at,(6,12))) init(object(node,73),value(at,(7,1))) init(object(node,74),value(at,(7,2))) init(object(node,75),value(at,(7,3))) init(object(node,76),value(at,(7,4))) init(object(node,77),value(at,(7,5))) init(object(node,78),value(at,(7,6))) init(object(node,79),value(at,(7,7))) init(object(node,80),value(at,(7,8))) init(object(node,81),value(at,(7,9))) init(object(node,82),value(at,(7,10))) init(object(node,83),value(at,(7,11))) init(object(node,84),value(at,(7,12))) init(object(node,85),value(at,(8,1))) init(object(node,86),value(at,(8,2))) init(object(node,87),value(at,(8,3))) init(object(node,88),value(at,(8,4))) init(object(node,89),value(at,(8,5))) init(object(node,90),value(at,(8,6))) init(object(node,91),value(at,(8,7))) init(object(node,92),value(at,(8,8))) init(object(node,93),value(at,(8,9))) init(object(node,94),value(at,(8,10))) init(object(node,95),value(at,(8,11))) init(object(node,96),value(at,(8,12))) init(object(node,97),value(at,(9,1))) init(object(node,98),value(at,(9,2))) init(object(node,99),value(at,(9,3))) init(object(node,100),value(at,(9,4))) init(object(node,101),value(at,(9,5))) init(object(node,102),value(at,(9,6))) init(object(node,103),value(at,(9,7))) init(object(node,104),value(at,(9,8))) init(object(node,105),value(at,(9,9))) init(object(node,106),value(at,(9,10))) init(object(node,107),value(at,(9,11))) init(object(node,108),value(at,(9,12))) init(object(node,109),value(at,(10,1))) init(object(node,110),value(at,(10,2))) init(object(node,111),value(at,(10,3))) init(object(node,112),value(at,(10,4))) init(object(node,113),value(at,(10,5))) init(object(node,114),value(at,(10,6))) init(object(node,115),value(at,(10,7))) init(object(node,116),value(at,(10,8))) init(object(node,117),value(at,(10,9))) init(object(node,118),value(at,(10,10))) init(object(node,119),value(at,(10,11))) init(object(node,120),value(at,(10,12))) init(object(robot,1),value(at,(10,12))) init(object(robot,2),value(at,(10,11))) init(object(robot,3),value(at,(9,12))) init(object(robot,4),value(at,(9,11))) init(object(robot,5),value(at,(8,12))) init(object(robot,6),value(at,(8,11))) init(object(robot,7),value(at,(7,12))) init(object(robot,8),value(at,(7,11))) init(object(robot,9),value(at,(6,12))) init(object(robot,10),value(at,(6,11))) init(object(robot,11),value(at,(5,12))) init(object(robot,12),value(at,(5,11))) init(object(robot,13),value(at,(4,12))) init(object(robot,14),value(at,(4,11))) init(object(robot,15),value(at,(3,12))) init(object(robot,16),value(at,(3,11))) init(object(robot,17),value(at,(2,12))) init(object(robot,18),value(at,(2,11))) init(object(robot,19),value(at,(1,12))) init(object(robot,20),value(at,(1,11))) init(object(destination,1),value(at,(3,6))) init(object(destination,2),value(at,(9,9))) init(object(destination,3),value(at,(6,10))) init(object(destination,4),value(at,(5,3))) init(object(destination,5),value(at,(8,7))) init(object(destination,6),value(at,(3,4))) init(object(destination,7),value(at,(8,6))) init(object(destination,8),value(at,(8,9))) init(object(destination,9),value(at,(9,7))) init(object(destination,10),value(at,(2,6))) init(object(destination,11),value(at,(2,10))) init(object(destination,12),value(at,(2,9))) init(object(destination,13),value(at,(6,3))) init(object(destination,14),value(at,(8,3))) init(object(destination,15),value(at,(6,4))) init(object(destination,16),value(at,(9,6))) init(object(destination,17),value(at,(3,7))) init(object(destination,18),value(at,(9,4))) init(object(destination,19),value(at,(5,10))) init(object(destination,20),value(at,(3,3))) occurs(object(robot,1),action(move,(0,-1)),1) occurs(object(robot,1),action(move,(-1,0)),2) occurs(object(robot,1),action(move,(-1,0)),3) occurs(object(robot,1),action(move,(-1,0)),4) occurs(object(robot,1),action(move,(-1,0)),5) occurs(object(robot,1),action(move,(-1,0)),6) occurs(object(robot,1),action(move,(-1,0)),7) occurs(object(robot,1),action(move,(-1,0)),8) occurs(object(robot,1),action(move,(0,-1)),9) occurs(object(robot,1),action(move,(0,-1)),10) occurs(object(robot,1),action(move,(0,-1)),11) occurs(object(robot,1),action(move,(0,-1)),12) occurs(object(robot,1),action(move,(0,-1)),13) occurs(object(robot,2),action(move,(0,-1)),1) occurs(object(robot,2),action(move,(-1,0)),4) occurs(object(robot,2),action(move,(0,1)),5) occurs(object(robot,2),action(move,(0,1)),6) occurs(object(robot,2),action(move,(0,-1)),10) occurs(object(robot,2),action(move,(0,-1)),11) occurs(object(robot,2),action(move,(0,-1)),12) occurs(object(robot,3),action(move,(0,-1)),1) occurs(object(robot,3),action(move,(0,-1)),2) occurs(object(robot,3),action(move,(0,1)),3) occurs(object(robot,3),action(move,(0,1)),4) occurs(object(robot,3),action(move,(-1,0)),5) occurs(object(robot,3),action(move,(0,-1)),6) occurs(object(robot,3),action(move,(-1,0)),7) occurs(object(robot,3),action(move,(-1,0)),9) occurs(object(robot,3),action(move,(0,-1)),10) occurs(object(robot,4),action(move,(-1,0)),1) occurs(object(robot,4),action(move,(-1,0)),2) occurs(object(robot,4),action(move,(-1,0)),3) occurs(object(robot,4),action(move,(0,-1)),4) occurs(object(robot,4),action(move,(0,-1)),5) occurs(object(robot,4),action(move,(0,-1)),6) occurs(object(robot,4),action(move,(0,-1)),7) occurs(object(robot,4),action(move,(0,-1)),8) occurs(object(robot,4),action(move,(-1,0)),9) occurs(object(robot,4),action(move,(0,-1)),10) occurs(object(robot,4),action(move,(0,-1)),11) occurs(object(robot,4),action(move,(0,-1)),12) occurs(object(robot,5),action(move,(1,0)),1) occurs(object(robot,5),action(move,(1,0)),3) occurs(object(robot,5),action(move,(0,-1)),4) occurs(object(robot,5),action(move,(0,-1)),5) occurs(object(robot,5),action(move,(0,-1)),6) occurs(object(robot,5),action(move,(-1,0)),7) occurs(object(robot,5),action(move,(0,-1)),8) occurs(object(robot,5),action(move,(-1,0)),9) occurs(object(robot,5),action(move,(0,-1)),10) occurs(object(robot,6),action(move,(0,-1)),1) occurs(object(robot,6),action(move,(0,-1)),2) occurs(object(robot,6),action(move,(-1,0)),3) occurs(object(robot,6),action(move,(-1,0)),4) occurs(object(robot,6),action(move,(-1,0)),5) occurs(object(robot,6),action(move,(-1,0)),6) occurs(object(robot,6),action(move,(-1,0)),7) occurs(object(robot,6),action(move,(0,-1)),8) occurs(object(robot,6),action(move,(0,-1)),9) occurs(object(robot,6),action(move,(0,-1)),10) occurs(object(robot,6),action(move,(0,-1)),11) occurs(object(robot,6),action(move,(0,-1)),12) occurs(object(robot,7),action(move,(1,0)),1) occurs(object(robot,7),action(move,(0,-1)),2) occurs(object(robot,7),action(move,(0,-1)),3) occurs(object(robot,7),action(move,(0,-1)),4) occurs(object(robot,7),action(move,(0,-1)),5) occurs(object(robot,7),action(move,(1,0)),6) occurs(object(robot,7),action(move,(0,-1)),7) occurs(object(robot,7),action(move,(-1,0)),9) occurs(object(robot,7),action(move,(0,-1)),10) occurs(object(robot,8),action(move,(0,-1)),1) occurs(object(robot,8),action(move,(1,0)),2) occurs(object(robot,8),action(move,(1,0)),3) occurs(object(robot,8),action(move,(0,1)),4) occurs(object(robot,8),action(move,(0,1)),5) occurs(object(robot,8),action(move,(-1,0)),6) occurs(object(robot,8),action(move,(0,-1)),8) occurs(object(robot,8),action(move,(0,-1)),9) occurs(object(robot,8),action(move,(0,-1)),10) occurs(object(robot,9),action(move,(1,0)),1) occurs(object(robot,9),action(move,(1,0)),2) occurs(object(robot,9),action(move,(1,0)),3) occurs(object(robot,9),action(move,(1,0)),4) occurs(object(robot,9),action(move,(0,-1)),5) occurs(object(robot,9),action(move,(-1,0)),6) occurs(object(robot,9),action(move,(0,-1)),10) occurs(object(robot,9),action(move,(0,-1)),11) occurs(object(robot,9),action(move,(0,-1)),12) occurs(object(robot,9),action(move,(0,-1)),13) occurs(object(robot,10),action(move,(0,-1)),1) occurs(object(robot,10),action(move,(-1,0)),2) occurs(object(robot,10),action(move,(-1,0)),3) occurs(object(robot,10),action(move,(-1,0)),4) occurs(object(robot,10),action(move,(0,-1)),5) occurs(object(robot,10),action(move,(-1,0)),6) occurs(object(robot,10),action(move,(0,-1)),7) occurs(object(robot,10),action(move,(0,-1)),8) occurs(object(robot,10),action(move,(0,-1)),9) occurs(object(robot,11),action(move,(1,0)),1) occurs(object(robot,11),action(move,(-1,0)),2) occurs(object(robot,11),action(move,(-1,0)),3) occurs(object(robot,11),action(move,(-1,0)),5) occurs(object(robot,11),action(move,(-1,0)),6) occurs(object(robot,11),action(move,(0,-1)),8) occurs(object(robot,11),action(move,(0,-1)),9) occurs(object(robot,12),action(move,(0,-1)),1) occurs(object(robot,12),action(move,(-1,0)),2) occurs(object(robot,12),action(move,(0,1)),3) occurs(object(robot,12),action(move,(-1,0)),4) occurs(object(robot,12),action(move,(-1,0)),5) occurs(object(robot,12),action(move,(0,-1)),6) occurs(object(robot,12),action(move,(0,-1)),7) occurs(object(robot,13),action(move,(1,0)),1) occurs(object(robot,13),action(move,(0,-1)),2) occurs(object(robot,13),action(move,(0,-1)),3) occurs(object(robot,13),action(move,(0,-1)),4) occurs(object(robot,13),action(move,(0,-1)),5) occurs(object(robot,13),action(move,(0,-1)),6) occurs(object(robot,13),action(move,(1,0)),8) occurs(object(robot,13),action(move,(0,-1)),9) occurs(object(robot,13),action(move,(0,-1)),10) occurs(object(robot,13),action(move,(0,-1)),11) occurs(object(robot,13),action(move,(0,-1)),12) occurs(object(robot,14),action(move,(1,0)),1) occurs(object(robot,14),action(move,(1,0)),2) occurs(object(robot,14),action(move,(0,-1)),3) occurs(object(robot,14),action(move,(1,0)),4) occurs(object(robot,14),action(move,(0,-1)),5) occurs(object(robot,14),action(move,(1,0)),6) occurs(object(robot,14),action(move,(0,-1)),7) occurs(object(robot,14),action(move,(0,-1)),8) occurs(object(robot,14),action(move,(0,-1)),9) occurs(object(robot,14),action(move,(0,-1)),10) occurs(object(robot,14),action(move,(0,-1)),11) occurs(object(robot,14),action(move,(0,-1)),12) occurs(object(robot,15),action(move,(0,-1)),2) occurs(object(robot,15),action(move,(0,-1)),3) occurs(object(robot,15),action(move,(0,-1)),4) occurs(object(robot,15),action(move,(0,-1)),5) occurs(object(robot,15),action(move,(1,0)),6) occurs(object(robot,15),action(move,(1,0)),7) occurs(object(robot,15),action(move,(1,0)),8) occurs(object(robot,15),action(move,(0,-1)),9) occurs(object(robot,15),action(move,(0,-1)),10) occurs(object(robot,15),action(move,(0,-1)),11) occurs(object(robot,15),action(move,(0,-1)),12) occurs(object(robot,16),action(move,(0,-1)),1) occurs(object(robot,16),action(move,(0,-1)),2) occurs(object(robot,16),action(move,(1,0)),3) occurs(object(robot,16),action(move,(0,1)),4) occurs(object(robot,16),action(move,(1,0)),5) occurs(object(robot,16),action(move,(1,0)),6) occurs(object(robot,16),action(move,(1,0)),7) occurs(object(robot,16),action(move,(1,0)),8) occurs(object(robot,16),action(move,(1,0)),9) occurs(object(robot,16),action(move,(0,-1)),10) occurs(object(robot,16),action(move,(0,-1)),11) occurs(object(robot,16),action(move,(0,-1)),12) occurs(object(robot,16),action(move,(0,-1)),13) occurs(object(robot,17),action(move,(1,0)),2) occurs(object(robot,17),action(move,(0,-1)),5) occurs(object(robot,17),action(move,(0,1)),6) occurs(object(robot,17),action(move,(0,-1)),9) occurs(object(robot,17),action(move,(0,-1)),10) occurs(object(robot,17),action(move,(0,-1)),11) occurs(object(robot,17),action(move,(0,-1)),12) occurs(object(robot,17),action(move,(0,-1)),13) occurs(object(robot,18),action(move,(1,0)),1) occurs(object(robot,18),action(move,(1,0)),2) occurs(object(robot,18),action(move,(1,0)),3) occurs(object(robot,18),action(move,(1,0)),4) occurs(object(robot,18),action(move,(0,-1)),5) occurs(object(robot,18),action(move,(1,0)),6) occurs(object(robot,18),action(move,(1,0)),7) occurs(object(robot,18),action(move,(0,-1)),8) occurs(object(robot,18),action(move,(1,0)),9) occurs(object(robot,18),action(move,(0,-1)),10) occurs(object(robot,18),action(move,(0,-1)),11) occurs(object(robot,18),action(move,(0,-1)),12) occurs(object(robot,18),action(move,(0,-1)),13) occurs(object(robot,18),action(move,(0,-1)),14) occurs(object(robot,19),action(move,(0,-1)),1) occurs(object(robot,19),action(move,(0,-1)),2) occurs(object(robot,19),action(move,(1,0)),3) occurs(object(robot,19),action(move,(1,0)),5) occurs(object(robot,19),action(move,(1,0)),6) occurs(object(robot,19),action(move,(1,0)),7) occurs(object(robot,20),action(move,(0,-1)),1) occurs(object(robot,20),action(move,(0,-1)),2) occurs(object(robot,20),action(move,(0,-1)),3) occurs(object(robot,20),action(move,(0,-1)),4) occurs(object(robot,20),action(move,(0,-1)),5) occurs(object(robot,20),action(move,(0,-1)),6) occurs(object(robot,20),action(move,(0,-1)),7) occurs(object(robot,20),action(move,(0,-1)),8) occurs(object(robot,20),action(move,(1,0)),9) occurs(object(robot,20),action(move,(1,0)),10)
SATISFIABLE

Models       : 1+
Calls        : 1
Time         : 1.280s (Solving: 0.05s 1st Model: 0.05s Unsat: 0.00s)
CPU Time     : 1.272s

Choices      : 2089    
Conflicts    : 80       (Analyzed: 80)
Restarts     : 0       
Model-Level  : 1449.0  
Problems     : 1        (Average Length: 0.00 Splits: 0)
Lemmas       : 80       (Deleted: 0)
  Binary     : 7        (Ratio:   8.75%)
  Ternary    : 10       (Ratio:  12.50%)
  Conflict   : 80       (Average Length:   12.7 Ratio: 100.00%) 
  Loop       : 0        (Average Length:    0.0 Ratio:   0.00%) 
  Other      : 0        (Average Length:    0.0 Ratio:   0.00%) 
Backjumps    : 80       (Average:  8.00 Max:  75 Sum:    640)
  Executed   : 80       (Average:  8.00 Max:  75 Sum:    640 Ratio: 100.00%)
  Bounded    : 0        (Average:  0.00 Max:   0 Sum:      0 Ratio:   0.00%)

Rules        : 407870   (Original: 362752)
  Choice     : 500     
Atoms        : 60507   
Bodies       : 256294   (Original: 211176)
  Count      : 2784     (Original: 3948)
Equivalences : 46943    (Atom=Atom: 721 Body=Body: 666 Other: 45556)
Tight        : Yes
Variables    : 238734   (Eliminated:    0 Frozen: 42168)
Constraints  : 920103   (Binary:  75.5% Ternary:  19.2% Other:   5.3%)

